1117
1117
1117
1120
1050
1074
1068
1068
1086
1029
1029
953
1079
1086
1019
1019
1019
993
928
993
1021
1021
992
992
992
992
955
954
1045
1032
1017
1003
1003
1007
1029
979
979
972
1003
976
976
952
976
869
869
869
869
949
1000
957
1000
1000
995
997
983
1000
1000
996
892
890
890
974
974
972
989
989
859
859
989
891
989
989
970
970
970
899
899
983
856
856
856
856
856
856
807
807
807
807
807
992
986
986
973
973
973
973
973
973
968
986
911
911
911
911
911
911
911
911
849
912
912
912
912
958
958
961
958
961
975
987
932
989
958
989
989
908
898
898
883
873
860
852
852
849
849
849
868
868
872
847
883
883
817
881
881
763
778
778
972
940
918
918
969
995
964
991
970
878
828
844
844
844
835
835
889
925
925
925
871
839
839
839
871
871
871
871
871
900
900
900
900
900
900
886
886
886
777
886
900
974
964
954
935
838
935
893
893
898
898
810
